Route #1: 4 92 182 57 40 147 133 195 31 32 38 108 56 45 85 165 177 65 128 125 189 109 160 151 94 99 168 53 192 101 74 52 23 117 114 86 50 112 157 33 66 82 
Route #2: 140 54 89 100 37 9 12 155 88 69 176 127 199 84 134 58 113 191 105 118 137 123 144 115 121 71 11 87 17 174 30 64 67 
Route #3: 142 24 131 48 180 43 3 136 124 156 102 15 179 7 68 18 183 196 184 190 27 167 152 169 72 161 119 98 16 129 22 61 198 51 91 111 145 80 126 110 178 90 44 116 95 83 148 36 
Route #4: 150 163 187 130 171 78 162 79 96 135 141 185 2 34 76 1 60 8 13 75 97 175 
Route #5: 153 28 6 132 49 14 47 103 200 63 149 42 172 197 46 138 186 20 159 26 62 5 181 122 77 35 164 104 25 10 170 19 193 73 146 93 120 39 
Route #6: 166 21 139 59 143 188 29 173 107 81 55 106 70 41 158 194 154 
Cost 2086.6
